p tw 320 1408
1 33
2 34
3 35
4 36
5 37
6 38
7 39
8 40
9 41
10 42
11 43
12 44
13 45
14 46
15 47
16 48
17 49
18 50
19 51
20 52
21 53
22 54
23 55
24 56
25 57
26 58
27 59
28 60
29 61
30 62
31 63
32 64
33 65
33 66
33 67
33 68
33 69
33 70
34 106
34 111
34 112
34 113
34 114
34 115
35 76
35 82
35 83
35 84
35 85
35 86
36 101
36 130
36 149
36 151
36 152
36 153
37 122
37 126
37 159
37 162
37 165
37 166
38 82
38 95
38 96
38 97
38 98
38 99
39 119
39 123
39 152
39 163
39 174
39 176
40 102
40 131
40 139
40 159
40 160
40 161
41 68
41 74
41 142
41 143
41 144
41 145
42 98
42 103
42 114
42 162
42 163
42 164
43 72
43 87
43 121
43 122
43 123
43 124
44 79
44 112
44 129
44 133
44 138
44 141
45 65
45 71
45 72
45 73
45 74
45 75
46 66
46 77
46 87
46 88
46 89
46 90
47 73
47 89
47 107
47 138
47 139
47 140
48 93
48 118
48 165
48 168
48 171
48 173
49 100
49 101
49 102
49 103
49 104
49 105
50 80
50 84
50 100
50 116
50 146
50 148
51 144
51 155
51 157
51 169
51 174
51 175
52 71
52 106
52 107
52 108
52 109
52 110
53 85
53 117
53 121
53 154
53 157
53 158
54 69
54 83
54 92
54 134
54 146
54 147
55 96
55 108
55 113
55 135
55 149
55 150
56 125
56 128
56 129
56 130
56 131
56 132
57 76
57 77
57 78
57 79
57 80
57 81
58 95
58 116
58 117
58 118
58 119
58 120
59 104
59 160
59 167
59 168
59 169
59 170
60 88
60 91
60 111
60 125
60 126
60 127
61 128
61 133
61 134
61 135
61 136
61 137
62 97
62 109
62 142
62 154
62 155
62 156
63 136
63 143
63 151
63 167
63 171
63 172
64 67
64 78
64 91
64 92
64 93
64 94
65 66
65 67
65 68
65 69
65 70
65 71
65 72
65 73
65 74
65 75
66 67
66 68
66 69
66 70
66 77
66 87
66 88
66 89
66 90
67 68
67 69
67 70
67 78
67 91
67 92
67 93
67 94
68 69
68 70
68 74
68 142
68 143
68 144
68 145
69 70
69 83
69 92
69 134
69 146
69 147
70 177
70 178
70 179
70 180
70 181
70 182
71 72
71 73
71 74
71 75
71 106
71 107
71 108
71 109
71 110
72 73
72 74
72 75
72 87
72 121
72 122
72 123
72 124
73 74
73 75
73 89
73 107
73 138
73 139
73 140
74 75
74 142
74 143
74 144
74 145
75 177
75 183
75 184
75 185
75 186
75 187
76 77
76 78
76 79
76 80
76 81
76 82
76 83
76 84
76 85
76 86
77 78
77 79
77 80
77 81
77 87
77 88
77 89
77 90
78 79
78 80
78 81
78 91
78 92
78 93
78 94
79 80
79 81
79 112
79 129
79 133
79 138
79 141
80 81
80 84
80 100
80 116
80 146
80 148
81 188
81 189
81 190
81 191
81 192
81 193
82 83
82 84
82 85
82 86
82 95
82 96
82 97
82 98
82 99
83 84
83 85
83 86
83 92
83 134
83 146
83 147
84 85
84 86
84 100
84 116
84 146
84 148
85 86
85 117
85 121
85 154
85 157
85 158
86 188
86 194
86 195
86 196
86 197
86 198
87 88
87 89
87 90
87 121
87 122
87 123
87 124
88 89
88 90
88 91
88 111
88 125
88 126
88 127
89 90
89 107
89 138
89 139
89 140
90 178
90 189
90 199
90 200
90 201
90 202
91 92
91 93
91 94
91 111
91 125
91 126
91 127
92 93
92 94
92 134
92 146
92 147
93 94
93 118
93 165
93 168
93 171
93 173
94 179
94 190
94 203
94 204
94 205
94 206
95 96
95 97
95 98
95 99
95 116
95 117
95 118
95 119
95 120
96 97
96 98
96 99
96 108
96 113
96 135
96 149
96 150
97 98
97 99
97 109
97 142
97 154
97 155
97 156
98 99
98 103
98 114
98 162
98 163
98 164
99 194
99 207
99 208
99 209
99 210
99 211
100 101
100 102
100 103
100 104
100 105
100 116
100 146
100 148
101 102
101 103
101 104
101 105
101 130
101 149
101 151
101 152
101 153
102 103
102 104
102 105
102 131
102 139
102 159
102 160
102 161
103 104
103 105
103 114
103 162
103 163
103 164
104 105
104 160
104 167
104 168
104 169
104 170
105 212
105 213
105 214
105 215
105 216
105 217
106 107
106 108
106 109
106 110
106 111
106 112
106 113
106 114
106 115
107 108
107 109
107 110
107 138
107 139
107 140
108 109
108 110
108 113
108 135
108 149
108 150
109 110
109 142
109 154
109 155
109 156
110 183
110 218
110 219
110 220
110 221
110 222
111 112
111 113
111 114
111 115
111 125
111 126
111 127
112 113
112 114
112 115
112 129
112 133
112 138
112 141
113 114
113 115
113 135
113 149
113 150
114 115
114 162
114 163
114 164
115 218
115 223
115 224
115 225
115 226
115 227
116 117
116 118
116 119
116 120
116 146
116 148
117 118
117 119
117 120
117 121
117 154
117 157
117 158
118 119
118 120
118 165
118 168
118 171
118 173
119 120
119 123
119 152
119 163
119 174
119 176
120 207
120 228
120 229
120 230
120 231
120 232
121 122
121 123
121 124
121 154
121 157
121 158
122 123
122 124
122 126
122 159
122 162
122 165
122 166
123 124
123 152
123 163
123 174
123 176
124 184
124 199
124 233
124 234
124 235
124 236
125 126
125 127
125 128
125 129
125 130
125 131
125 132
126 127
126 159
126 162
126 165
126 166
127 200
127 203
127 223
127 237
127 238
127 239
128 129
128 130
128 131
128 132
128 133
128 134
128 135
128 136
128 137
129 130
129 131
129 132
129 133
129 138
129 141
130 131
130 132
130 149
130 151
130 152
130 153
131 132
131 139
131 159
131 160
131 161
132 237
132 240
132 241
132 242
132 243
132 244
133 134
133 135
133 136
133 137
133 138
133 141
134 135
134 136
134 137
134 146
134 147
135 136
135 137
135 149
135 150
136 137
136 143
136 151
136 167
136 171
136 172
137 240
137 245
137 246
137 247
137 248
137 249
138 139
138 140
138 141
139 140
139 159
139 160
139 161
140 185
140 201
140 219
140 250
140 251
140 252
141 191
141 224
141 241
141 245
141 250
141 253
142 143
142 144
142 145
142 154
142 155
142 156
143 144
143 145
143 151
143 167
143 171
143 172
144 145
144 155
144 157
144 169
144 174
144 175
145 180
145 186
145 254
145 255
145 256
145 257
146 147
146 148
147 181
147 195
147 204
147 246
147 258
147 259
148 192
148 196
148 212
148 228
148 258
148 260
149 150
149 151
149 152
149 153
150 208
150 220
150 225
150 247
150 261
150 262
151 152
151 153
151 167
151 171
151 172
152 153
152 163
152 174
152 176
153 213
153 242
153 261
153 263
153 264
153 265
154 155
154 156
154 157
154 158
155 156
155 157
155 169
155 174
155 175
156 209
156 221
156 254
156 266
156 267
156 268
157 158
157 169
157 174
157 175
158 197
158 229
158 233
158 266
158 269
158 270
159 160
159 161
159 162
159 165
159 166
160 161
160 167
160 168
160 169
160 170
161 214
161 243
161 251
161 271
161 272
161 273
162 163
162 164
162 165
162 166
163 164
163 174
163 176
164 210
164 215
164 226
164 274
164 275
164 276
165 166
165 168
165 171
165 173
166 234
166 238
166 271
166 274
166 277
166 278
167 168
167 169
167 170
167 171
167 172
168 169
168 170
168 171
168 173
169 170
169 174
169 175
170 216
170 272
170 279
170 280
170 281
170 282
171 172
171 173
172 248
172 255
172 263
172 279
172 283
172 284
173 205
173 230
173 277
173 280
173 283
173 285
174 175
174 176
175 256
175 267
175 269
175 281
175 286
175 287
176 231
176 235
176 264
176 275
176 286
176 288
177 178
177 179
177 180
177 181
177 182
177 183
177 184
177 185
177 186
177 187
178 179
178 180
178 181
178 182
178 189
178 199
178 200
178 201
178 202
179 180
179 181
179 182
179 190
179 203
179 204
179 205
179 206
180 181
180 182
180 186
180 254
180 255
180 256
180 257
181 182
181 195
181 204
181 246
181 258
181 259
182 320
183 184
183 185
183 186
183 187
183 218
183 219
183 220
183 221
183 222
184 185
184 186
184 187
184 199
184 233
184 234
184 235
184 236
185 186
185 187
185 201
185 219
185 250
185 251
185 252
186 187
186 254
186 255
186 256
186 257
187 308
188 189
188 190
188 191
188 192
188 193
188 194
188 195
188 196
188 197
188 198
189 190
189 191
189 192
189 193
189 199
189 200
189 201
189 202
190 191
190 192
190 193
190 203
190 204
190 205
190 206
191 192
191 193
191 224
191 241
191 245
191 250
191 253
192 193
192 196
192 212
192 228
192 258
192 260
193 296
194 195
194 196
194 197
194 198
194 207
194 208
194 209
194 210
194 211
195 196
195 197
195 198
195 204
195 246
195 258
195 259
196 197
196 198
196 212
196 228
196 258
196 260
197 198
197 229
197 233
197 266
197 269
197 270
198 318
199 200
199 201
199 202
199 233
199 234
199 235
199 236
200 201
200 202
200 203
200 223
200 237
200 238
200 239
201 202
201 219
201 250
201 251
201 252
202 307
203 204
203 205
203 206
203 223
203 237
203 238
203 239
204 205
204 206
204 246
204 258
204 259
205 206
205 230
205 277
205 280
205 283
205 285
206 289
207 208
207 209
207 210
207 211
207 228
207 229
207 230
207 231
207 232
208 209
208 210
208 211
208 220
208 225
208 247
208 261
208 262
209 210
209 211
209 221
209 254
209 266
209 267
209 268
210 211
210 215
210 226
210 274
210 275
210 276
211 315
212 213
212 214
212 215
212 216
212 217
212 228
212 258
212 260
213 214
213 215
213 216
213 217
213 242
213 261
213 263
213 264
213 265
214 215
214 216
214 217
214 243
214 251
214 271
214 272
214 273
215 216
215 217
215 226
215 274
215 275
215 276
216 217
216 272
216 279
216 280
216 281
216 282
217 304
218 219
218 220
218 221
218 222
218 223
218 224
218 225
218 226
218 227
219 220
219 221
219 222
219 250
219 251
219 252
220 221
220 222
220 225
220 247
220 261
220 262
221 222
221 254
221 266
221 267
221 268
222 301
223 224
223 225
223 226
223 227
223 237
223 238
223 239
224 225
224 226
224 227
224 241
224 245
224 250
224 253
225 226
225 227
225 247
225 261
225 262
226 227
226 274
226 275
226 276
227 319
228 229
228 230
228 231
228 232
228 258
228 260
229 230
229 231
229 232
229 233
229 266
229 269
229 270
230 231
230 232
230 277
230 280
230 283
230 285
231 232
231 235
231 264
231 275
231 286
231 288
232 295
233 234
233 235
233 236
233 266
233 269
233 270
234 235
234 236
234 238
234 271
234 274
234 277
234 278
235 236
235 264
235 275
235 286
235 288
236 310
237 238
237 239
237 240
237 241
237 242
237 243
237 244
238 239
238 271
238 274
238 277
238 278
239 293
240 241
240 242
240 243
240 244
240 245
240 246
240 247
240 248
240 249
241 242
241 243
241 244
241 245
241 250
241 253
242 243
242 244
242 261
242 263
242 264
242 265
243 244
243 251
243 271
243 272
243 273
244 297
245 246
245 247
245 248
245 249
245 250
245 253
246 247
246 248
246 249
246 258
246 259
247 248
247 249
247 261
247 262
248 249
248 255
248 263
248 279
248 283
248 284
249 292
250 251
250 252
250 253
251 252
251 271
251 272
251 273
252 306
253 309
254 255
254 256
254 257
254 266
254 267
254 268
255 256
255 257
255 263
255 279
255 283
255 284
256 257
256 267
256 269
256 281
256 286
256 287
257 312
258 259
258 260
259 299
260 303
261 262
261 263
261 264
261 265
262 298
263 264
263 265
263 279
263 283
263 284
264 265
264 275
264 286
264 288
265 317
266 267
266 268
266 269
266 270
267 268
267 269
267 281
267 286
267 287
268 291
269 270
269 281
269 286
269 287
270 300
271 272
271 273
271 274
271 277
271 278
272 273
272 279
272 280
272 281
272 282
273 313
274 275
274 276
274 277
274 278
275 276
275 286
275 288
276 311
277 278
277 280
277 283
277 285
278 316
279 280
279 281
279 282
279 283
279 284
280 281
280 282
280 283
280 285
281 282
281 286
281 287
282 294
283 284
283 285
284 290
285 305
286 287
286 288
287 302
288 314
